
  14    4
  10   10   10   10

   0   0   0   0   0   2 2 7 
   5   0   0   1   1   1 3 
   6   0   0   0   7   1 4 
   5   0   0   0   7   2 13 5 
   2   0   0   7   8   1 6 
   5   0   0   9   0   1 8 
   7   0   0   7  10   2 13 10 
   1   0   1   7   0   1 9 
  10   3   0   0   7   1 10 
   4   0   0   7   6   1 11 
   9  10   0   5   6   1 12 
   1   0  10   9   0   1 14
   8   0   8   7   0   1 14
   0   0   0   0   0   0 
